db/data/268631666419764106852352719019269627854.z3.out
sat
-------------------
762.533289860
